1 909 649
2 239 197
3 627 893
4 472 730
5 827 766
6 661 410
7 890 230
8 559 465
9 945 684
10 527 928
11 242 892
12 100 420
13 431 350
14 368 199
15 112 736
16 244 667
17 257 386
18 640 568
19 755 726
20 702 717